&CONTROL
calculation = 'nscf'
pseudo_dir = '.'         
verbosity = 'high'
/

&SYSTEM
    celldm(1)           =  4.660800451
    celldm(3)           =  3.164154417
    degauss     =  1.00000e-02
    ecutrho     =  4.50000e+02
    ecutwfc     =  5.00000e+01
    ibrav       = 4
    nat         = 4
    ntyp        = 1
    nbnd = 16
    occupations = "tetrahedra"
    smearing    = "gaussian"
/

&ELECTRONS
  
/

K_POINTS {automatic}
 22 22 10 0 0 0

ATOMIC_SPECIES
C      12.01070  C.pbe-n-rrkjus_psl.1.0.0.UPF

ATOMIC_POSITIONS (crystal)
C       -0.000000000  -0.000000000   0.250000000
C        0.000000000  -0.000000000   0.750000000
C        0.333333000   0.666667000   0.250000000
C        0.666667000   0.333333000   0.750000000
