&bands
 	prefix = 'graphite',
  	outdir = 'data',
	filband = 'bands.dat',
/
