&CONTROL
	calculation = 'bands'
	prefix = 'graphite'
	pseudo_dir = '.'
	outdir = 'data'
	verbosity = 'high'
/

&SYSTEM
	celldm(1) = 4.660800451
	celldm(3) = 3.164154417
	degauss = 1.00000e-02
	ecutrho = 4.50000e+02
	ecutwfc = 5.00000e+01
	ibrav = 4
	nat = 4
	ntyp = 1
	nbnd = 16
	occupations = "smearing"
	smearing = "gaussian"
/

&ELECTRONS
	conv_thr = 1d-6,
	mixing_beta = 0.3,
	mixing_mode = 'plain'
	electron_maxstep = 100,
	diagonalization = 'david',
/

! G—M—K—G—A—L—H—A|L—M|H—K comment
K_POINTS {crystal_b}
12
gG 20
M 20
K 20
gG 20
A 20
L 20
H 20
A 0
L 20

ATOMIC_SPECIES
C      12.01070  C.pbe-n-rrkjus_psl.1.0.0.UPF

ATOMIC_POSITIONS (crystal)
C       -0.000000000  -0.000000000   0.250000000
C        0.000000000  -0.000000000   0.750000000
C        0.333333000   0.666667000   0.250000000
C        0.666667000   0.333333000   0.750000000